70
1216
24
3
24
96
99
60
23
63
57
24
43
57
87
10
32
73
52
16
90
12
66
74
38
44
32
0 1
0 5
0 7
0 9
0 10
0 12
0 13
0 20
0 24
0 27
0 29
0 35
0 38
0 39
0 40
0 41
0 43
0 50
0 52
0 54
0 55
0 61
0 63
0 64
0 66
1 2
1 3
1 9
1 10
1 11
1 12
1 17
1 19
1 20
1 21
1 23
1 27
1 28
1 29
1 30
1 32
1 35
1 38
1 39
1 41
1 43
1 45
1 49
1 52
1 53
1 54
1 56
1 57
1 58
1 60
1 61
1 65
1 67
1 68
2 3
2 4
2 5
2 7
2 9
2 10
2 12
2 17
2 20
2 27
2 29
2 30
2 31
2 32
2 33
2 34
2 36
2 37
2 40
2 42
2 45
2 46
2 48
2 49
2 50
2 51
2 55
2 57
2 58
2 59
2 60
2 64
2 65
2 68
2 69
3 6
3 7
3 9
3 10
3 11
3 12
3 14
3 16
3 17
3 20
3 21
3 23
3 24
3 30
3 31
3 32
3 34
3 36
3 37
3 40
3 46
3 47
3 48
3 49
3 51
3 53
3 54
3 56
3 57
3 61
3 62
3 65
3 68
4 10
4 12
4 16
4 17
4 18
4 20
4 21
4 22
4 23
4 27
4 28
4 29
4 31
4 32
4 34
4 35
4 43
4 44
4 45
4 46
4 48
4 49
4 50
4 51
4 53
4 56
4 59
4 60
4 62
4 63
4 67
5 9
5 12
5 13
5 15
5 18
5 22
5 24
5 25
5 26
5 28
5 32
5 33
5 35
5 36
5 40
5 41
5 42
5 43
5 46
5 47
5 50
5 52
5 53
5 55
5 57
5 59
5 62
5 66
5 67
5 69
6 7
6 8
6 10
6 11
6 13
6 15
6 18
6 19
6 20
6 22
6 24
6 25
6 29
6 31
6 34
6 36
6 40
6 41
6 42
6 43
6 44
6 45
6 46
6 48
6 50
6 51
6 52
6 55
6 56
6 57
6 59
6 61
6 64
6 65
6 66
6 67
6 69
7 9
7 10
7 11
7 14
7 16
7 17
7 18
7 19
7 20
7 21
7 24
7 25
7 26
7 29
7 30
7 39
7 42
7 46
7 48
7 50
7 54
7 57
7 59
7 60
7 61
7 63
7 64
7 66
7 67
8 10
8 11
8 13
8 15
8 16
8 19
8 21
8 22
8 23
8 25
8 26
8 28
8 29
8 30
8 31
8 36
8 39
8 42
8 47
8 49
8 51
8 53
8 55
8 56
8 58
8 61
8 62
8 65
8 67
8 69
9 10
9 11
9 12
9 18
9 19
9 20
9 22
9 23
9 28
9 29
9 32
9 35
9 36
9 38
9 39
9 40
9 41
9 42
9 43
9 44
9 45
9 46
9 47
9 48
9 53
9 55
9 58
9 59
9 60
9 61
9 62
9 64
9 65
9 68
9 69
10 11
10 12
10 14
10 16
10 18
10 19
10 20
10 25
10 27
10 30
10 32
10 36
10 37
10 38
10 40
10 42
10 43
10 44
10 45
10 50
10 51
10 53
10 55
10 56
10 57
10 65
10 68
11 12
11 13
11 14
11 15
11 16
11 17
11 18
11 20
11 23
11 24
11 25
11 27
11 28
11 31
11 32
11 34
11 37
11 39
11 40
11 41
11 44
11 45
11 46
11 47
11 50
11 52
11 59
11 61
11 62
11 63
11 64
11 66
11 67
12 14
12 18
12 23
12 27
12 28
12 30
12 32
12 33
12 34
12 37
12 41
12 42
12 43
12 44
12 45
12 47
12 49
12 50
12 55
12 57
12 61
12 62
12 63
13 14
13 16
13 20
13 25
13 27
13 29
13 30
13 31
13 32
13 33
13 35
13 39
13 40
13 41
13 42
13 43
13 45
13 48
13 49
13 50
13 51
13 53
13 54
13 58
13 59
13 62
13 69
14 17
14 20
14 22
14 25
14 26
14 27
14 30
14 32
14 33
14 34
14 36
14 38
14 39
14 43
14 44
14 45
14 46
14 48
14 49
14 50
14 52
14 54
14 55
14 57
14 58
14 59
14 60
14 62
14 64
14 67
15 17
15 20
15 22
15 23
15 28
15 29
15 30
15 32
15 34
15 35
15 36
15 39
15 40
15 41
15 44
15 45
15 47
15 48
15 51
15 54
15 57
15 58
15 65
15 66
16 17
16 19
16 20
16 21
16 22
16 23
16 24
16 25
16 29
16 30
16 31
16 34
16 36
16 39
16 40
16 43
16 47
16 48
16 49
16 50
16 51
16 52
16 53
16 56
16 60
16 61
16 62
16 63
16 64
16 66
16 67
16 68
17 20
17 26
17 32
17 33
17 34
17 35
17 37
17 38
17 39
17 41
17 42
17 44
17 45
17 46
17 48
17 49
17 50
17 51
17 54
17 55
17 56
17 58
17 60
17 61
17 62
17 67
17 68
17 69
18 19
18 20
18 21
18 22
18 23
18 24
18 26
18 28
18 29
18 34
18 36
18 40
18 42
18 44
18 45
18 46
18 48
18 51
18 53
18 54
18 55
18 56
18 59
18 63
18 65
18 66
18 67
18 69
19 20
19 21
19 22
19 23
19 28
19 29
19 30
19 34
19 35
19 36
19 39
19 40
19 42
19 47
19 48
19 51
19 54
19 56
19 57
19 60
19 63
19 65
19 67
19 68
19 69
20 24
20 29
20 32
20 33
20 34
20 35
20 36
20 40
20 46
20 47
20 48
20 52
20 54
20 56
20 57
20 61
20 63
20 64
20 65
20 66
20 67
20 68
20 69
21 22
21 25
21 26
21 30
21 33
21 36
21 40
21 41
21 42
21 43
21 44
21 45
21 48
21 49
21 51
21 54
21 55
21 56
21 57
21 58
21 59
21 60
21 62
21 63
21 64
21 65
21 66
21 67
21 68
21 69
22 23
22 24
22 27
22 28
22 29
22 30
22 31
22 32
22 36
22 40
22 43
22 44
22 45
22 46
22 47
22 48
22 50
22 54
22 57
22 58
22 62
22 63
22 64
22 68
23 26
23 28
23 29
23 30
23 31
23 33
23 35
23 39
23 40
23 42
23 44
23 46
23 47
23 53
23 58
23 59
23 62
23 63
23 68
23 69
24 26
24 27
24 28
24 29
24 30
24 31
24 32
24 33
24 34
24 36
24 39
24 40
24 41
24 43
24 44
24 46
24 47
24 50
24 53
24 54
24 55
24 59
24 60
24 61
24 62
24 64
24 66
24 67
24 69
25 27
25 28
25 29
25 31
25 32
25 35
25 36
25 37
25 40
25 41
25 42
25 44
25 45
25 48
25 49
25 50
25 52
25 54
25 60
25 61
25 62
25 68
25 69
26 28
26 29
26 32
26 33
26 34
26 36
26 37
26 38
26 41
26 46
26 47
26 49
26 51
26 52
26 55
26 56
26 57
26 61
26 64
26 65
26 67
27 28
27 29
27 32
27 33
27 35
27 36
27 37
27 38
27 39
27 42
27 43
27 44
27 45
27 47
27 52
27 53
27 55
27 56
27 57
27 60
27 61
27 63
27 64
27 65
27 69
28 31
28 33
28 36
28 37
28 44
28 45
28 46
28 48
28 49
28 51
28 53
28 56
28 58
28 59
28 60
28 61
28 64
28 69
29 30
29 31
29 33
29 35
29 36
29 39
29 43
29 45
29 47
29 50
29 51
29 52
29 53
29 57
29 58
29 60
29 62
29 63
29 64
29 67
30 31
30 34
30 35
30 39
30 40
30 41
30 43
30 46
30 47
30 50
30 51
30 56
30 58
30 59
30 60
30 61
30 62
30 63
30 64
30 65
30 67
30 68
30 69
31 32
31 36
31 37
31 40
31 41
31 42
31 43
31 44
31 46
31 47
31 50
31 54
31 56
31 58
31 59
31 60
31 63
31 66
32 33
32 36
32 40
32 44
32 46
32 48
32 49
32 50
32 51
32 52
32 53
32 55
32 63
32 64
32 65
32 66
32 69
33 34
33 35
33 36
33 37
33 38
33 39
33 44
33 46
33 50
33 52
33 54
33 56
33 57
33 58
33 60
33 61
33 63
33 65
33 66
33 67
33 68
33 69
34 36
34 38
34 39
34 41
34 42
34 44
34 46
34 47
34 48
34 50
34 59
34 60
34 64
34 66
34 68
35 39
35 40
35 42
35 43
35 44
35 45
35 47
35 48
35 50
35 52
35 53
35 58
35 67
35 68
35 69
36 40
36 41
36 42
36 44
36 46
36 47
36 49
36 50
36 51
36 54
36 55
36 57
36 58
36 59
36 63
36 64
36 65
36 67
36 68
37 38
37 39
37 46
37 47
37 50
37 52
37 56
37 57
37 59
37 62
37 63
37 64
37 65
37 66
37 67
37 68
37 69
38 40
38 43
38 44
38 48
38 49
38 50
38 51
38 52
38 53
38 54
38 55
38 56
38 60
38 61
38 62
38 67
39 42
39 44
39 46
39 47
39 48
39 50
39 51
39 52
39 54
39 55
39 57
39 58
39 60
39 69
40 42
40 43
40 44
40 46
40 47
40 48
40 49
40 51
40 58
40 59
40 60
40 63
40 65
40 67
40 68
40 69
41 43
41 45
41 46
41 48
41 49
41 51
41 53
41 54
41 57
41 58
41 59
41 60
41 65
41 66
41 67
41 68
42 44
42 45
42 46
42 51
42 54
42 55
42 60
42 63
43 45
43 47
43 48
43 49
43 51
43 54
43 56
43 57
43 60
43 61
43 66
43 69
44 46
44 49
44 51
44 52
44 54
44 55
44 56
44 58
44 59
44 62
44 63
44 65
44 66
45 47
45 48
45 52
45 53
45 57
45 58
45 59
45 60
45 62
45 68
46 48
46 49
46 51
46 53
46 57
46 58
46 61
46 64
46 65
46 67
46 68
47 52
47 53
47 54
47 55
47 57
47 59
47 60
47 61
47 64
47 67
47 68
47 69
48 49
48 52
48 54
48 58
48 61
48 63
48 64
48 67
48 68
48 69
49 50
49 51
49 52
49 55
49 56
49 57
49 58
49 60
49 63
49 65
49 69
50 51
50 52
50 54
50 55
50 56
50 58
50 60
50 65
51 52
51 54
51 55
51 57
51 59
51 60
51 64
51 65
51 66
51 68
51 69
52 53
52 54
52 55
52 58
52 64
52 67
52 68
52 69
53 55
53 59
53 62
53 63
53 67
53 69
54 57
54 58
54 59
54 60
54 61
54 62
54 66
55 57
55 59
55 60
55 62
55 69
56 57
56 63
56 64
56 67
56 68
57 58
57 59
57 62
57 64
57 65
57 67
57 68
57 69
58 59
58 60
58 61
58 62
58 63
58 65
58 67
58 69
59 60
59 62
59 65
59 68
59 69
60 61
60 62
60 64
60 67
60 68
60 69
61 63
61 64
61 67
61 68
62 67
62 68
62 69
63 68
63 69
64 67
64 68
65 66
65 67
67 68
68 69
56 42 61
60 46 16
28 51 30
54 9 25
50 12 7
69 11 55
52 48 44
3 29 22
43 59 65
36 40 8
24 20 53
1 26 15
58 66 67
31 0 14
63 39 45
64 41 32
35 33 34
21 62 10
17 68 57
38 6 23
2 47 19
49 27 18
4 37 13
5
